402799 61576.7
297289 132474
5194.16 447397
32651.4 400630
130188 311048
118789 314695
21689.2 419692
119251 314506
251194 194468
275700 158085
350592 95043.1
52762.2 391859
58876.2 376428
222231 225385
80157.5 355423
243201 199871
233782 218002
205370 241971
311642 125603
79707.2 359209
124513 314219
358519 90553.7
379370 87151.1
98241.3 349589
127448 311496
109918 336603
306887 132196
292075 157707
189067 250398
234447 216638
151893 295867
274067 165695
218422 228840
345066 108462
73667.8 366230
274396 165622
7194.2 442820
261194 192796
102785 346055
160533 290780
182988 276243
130410 310345
333946 110685
115433 336279
295349 155680
160650 283446
295784 152709
105881 341047
381954 65273.2
184544 266955
134965 307328
269927 173571
272478 172709
134290 310017
108576 336732
247683 195229
170383 280766
262532 186906
243053 201804
199120 250158
346388 106558
152546 295111
14725.9 430286
340846 109380
270766 173345
147278 301137
